DATASET = "thpack4";
INSTANCE = "012";

WIDTH = 233;
HEIGHT = 220;
LENGTH = 587;

NO_OF_SHAPES = 10;
size = [|
  95,80,57 |
  112,87,23 |
  116,41,40 |
  98,80,56 |
  108,60,59 |
  82,77,67 |
  67,46,36 |
  104,72,44 |
  89,56,24 |
  64,36,36 |
|];

verticality = [|
  1,1,1 |
  0,0,1 |
  0,1,1 |
  1,1,1 |
  1,1,1 |
  1,1,1 |
  1,1,1 |
  0,1,1 |
  0,0,1 |
  1,1,1 |
|];

box_count = [
  8,
  15,
  12,
  15,
  8,
  9,
  8,
  11,
  17,
  11,
];
